TCS_Benchmarks/redos_fix/regexlib1_output_distinct_2756_2755_24_0.txt
(([\-0-9A-Za-z]+\.)*)([\.\?\/#%&0-9=\-A-Za-z\+]+)
(([\-0-9A-Za-z]+\.)*)([\-0-9A-Za-z]+\.[A-Za-z]{2,6}(\/|\?))([\.\?\/#%&0-9=\-A-Za-z\+]+)